WARNING: for repeatability, setting FPU to use double precision
============================[ Problem Statistics ]=============================
|                                                                             |
|  Number of symmetries:          19                                          |
|  Number of invertingSyms:        0                                          |
|  Number of variables:           110                                         |
|  Number of clauses:             561                                         |
|  Parse time:                   0.00 s                                       |
|                                                                             |
============================[ Search Statistics ]==============================
| Conflicts |          ORIGINAL         |          LEARNT          | Progress |
|           |    Vars  Clauses Literals |    Limit  Clauses Lit/Cl |          |
===============================================================================
|       100 |     110      561     1210 |      205      100     43 |  0.008 % |
|       250 |     110      561     1210 |      226      146     38 |  0.008 % |
|       475 |     110      561     1210 |      248      227     39 |  0.008 % |
|       812 |     110      561     1210 |      273      278     34 |  0.092 % |
|      1318 |     110      561     1210 |      301      167     26 |  0.008 % |
|      2077 |     110      561     1210 |      331      220     32 |  0.008 % |
|      3216 |     110      561     1210 |      364      376     30 |  0.008 % |
|      4924 |     110      561     1210 |      400      292     27 |  0.091 % |
|      7486 |     110      561     1210 |      440      341     27 |  0.091 % |
===============================================================================
restarts              : 31
conflicts             : 7806           (156120 /sec)
symconflicts          : 934            (18680 /sec)
decisions             : 12960          (0.00 % random) (259200 /sec)
propagations          : 144669         (2893380 /sec)
sympropagations       : 3954           (79080 /sec)
conflict literals     : 269969         (10.01 % deleted)
Memory used           : 5.00 MB
CPU time              : 0.05 s

UNSATISFIABLE
